17	4
14	12	14	13	
0	0	0	0	0	3	2	3	4	
1	6	1	0	9	1	9	
7	2	2	8	7	3	6	17	17	
6	0	0	4	10	2	5	12	
7	9	4	3	4	3	8	10	11	
100	0	0	1	8	1	7	
250	0	1	2	2	2	12	17	
100	7	2	4	5	3	15	17	17	
150	1	1	5	3	2	11	13	
225	0	8	1	5	3	13	16	17	
150	5	1	1	4	2	14	17	
225	0	10	1	9	1	17	
4	3	0	5	2	3	14	17	17	
8	4	1	7	1	3	17	17	17	
7	5	2	0	3	2	17	17	
3	5	4	10	8	3	17	17	17	
0	0	0	0	0	0	
